0 1881
1 1718
2 1639
3 1527
4 1483
5 1416
6 1349
7 1299
8 1217
9 1217
10 1149
11 1144
12 1125
13 1096
14 1096
15 1069
16 1021
17 995
18 961
19 961
20 953
21 952
22 937
23 925
24 919
25 916
26 913
27 911
28 911
29 904
30 899
31 893
32 893
33 893
34 893
35 893
36 893
37 893
38 893
39 893
40 892
41 892
42 892
43 879
44 879
45 874
46 874
47 846
48 846
49 843
50 842
51 841
52 841
53 841
54 841
55 841
56 841
57 841
58 841
59 841
60 841
61 841
62 841
63 841
64 841
65 841
66 841
67 841
68 841
69 841
70 841
71 841
72 841
73 841
74 841
75 841
76 841
77 841
78 841
79 841
80 841
81 841
82 841
83 841
84 841
85 841
86 841
87 841
88 841
89 841
90 841
91 841
92 841
93 841
94 841
95 841
96 841
97 841
98 841
99 841
100 841
101 841
102 841
103 841
104 841
105 841
106 841
107 841
108 841
109 841
110 841
111 841
112 841
113 841
114 841
115 841
116 841
117 841
118 841
119 841
120 841
121 841
122 841
123 841
124 841
125 841
126 841
127 841
128 841
129 841
130 841
131 841
132 841
133 841
134 841
135 841
136 841
137 841
138 841
139 841
140 841
141 841
142 841
143 841
144 841
145 841
146 841
147 841
148 841
149 841
150 841
151 841
152 841
153 841
154 841
155 841
156 841
157 841
158 841
159 841
160 841
161 841
162 841
163 841
164 841
165 841
166 841
167 841
168 841
169 841
170 841
171 841
172 841
173 841
174 841
175 841
176 841
177 841
178 841
179 841
180 841
181 841
182 841
183 841
184 841
185 841
186 841
187 841
188 841
189 841
190 841
191 841
192 841
193 841
194 841
195 841
196 841
197 841
198 841
199 841
200 841
201 841
202 841
203 841
204 841
205 841
206 841
207 841
208 841
209 841
210 841
211 841
212 841
213 841
214 841
215 841
216 841
217 841
218 841
219 841
220 841
221 841
222 841
223 841
224 841
225 841
226 841
227 841
228 841
229 841
230 841
231 841
232 841
233 841
234 841
235 841
236 841
237 841
238 841
239 841
240 841
241 841
242 841
243 841
244 841
245 841
246 841
247 841
248 841
249 841
250 841
251 841
252 841
253 841
254 841
255 841
256 841
257 841
258 841
259 841
260 841
261 841
262 841
263 841
264 841
265 841
266 841
267 841
268 841
269 841
270 841
271 841
272 841
273 841
274 841
275 841
276 841
277 841
278 841
279 841
280 841
281 841
282 841
283 841
284 841
285 841
286 841
287 841
288 841
289 841
290 841
291 841
292 841
293 841
294 841
295 841
296 841
297 841
298 841
299 841
300 841
301 841
302 841
303 841
304 841
305 841
306 841
307 841
308 841
309 841
310 841
311 841
312 841
313 841
314 841
315 841
316 841
317 841
318 841
319 841
320 841
321 841
322 841
323 841
324 841
325 841
326 841
327 841
328 841
329 841
330 841
331 841
332 841
333 841
334 841
335 841
336 841
337 841
338 841
339 841
340 841
341 841
342 841
343 841
344 841
345 841
346 841
347 841
348 841
349 841
350 841
351 841
352 841
353 841
354 841
355 841
356 841
357 841
358 841
359 841
360 841
361 841
362 841
363 841
364 841
365 841
366 841
367 841
368 841
369 841
370 841
371 841
372 841
373 841
374 841
375 841
376 841
377 841
378 841
379 841
380 841
381 841
382 841
383 841
384 841
385 841
386 841
387 841
388 841
389 841
390 841
391 841
392 841
393 841
394 841
395 841
396 841
397 841
398 841
399 841
400 841
401 841
402 841
403 841
404 841
405 841
406 841
407 841
408 841
409 841
410 841
411 841
412 841
413 841
414 841
415 841
416 841
417 841
418 841
419 841
420 841
421 841
422 841
423 841
424 841
425 841
426 841
427 841
428 841
429 841
430 841
431 841
432 841
433 841
434 841
435 841
436 841
437 841
438 841
439 841
440 841
441 841
442 841
443 841
444 841
445 841
446 841
447 841
448 841
449 841
450 841
451 841
452 841
453 841
454 841
455 841
456 841
457 841
458 841
459 841
460 841
461 841
462 841
463 841
464 841
465 841
466 841
467 841
468 841
469 841
470 841
471 841
472 841
473 841
474 841
475 841
476 841
477 841
478 841
479 841
480 841
481 841
482 841
483 841
484 841
485 841
486 841
487 841
488 841
489 841
490 841
491 841
492 841
493 841
494 841
495 841
496 841
497 841
498 841
499 841
500 841
501 841
502 841
503 841
504 841
505 841
506 841
507 841
508 841
509 841
510 841
511 841
512 841
513 841
514 841
515 841
516 841
517 841
518 841
519 841
520 841
521 841
522 841
523 841
524 841
525 841
526 841
527 841
528 841
529 841
530 841
531 841
532 841
533 841
534 841
535 841
536 841
537 841
538 841
539 841
540 841
541 841
542 841
543 841
544 841
545 841
546 841
547 841
548 841
549 841
550 841
551 841
552 841
553 841
554 841
555 841
556 841
557 841
558 841
559 841
560 841
561 841
562 841
563 841
564 841
565 841
566 841
567 841
568 841
569 841
570 841
571 841
572 841
573 841
574 841
575 841
576 841
577 841
578 841
579 841
580 841
581 841
582 841
583 841
584 841
585 841
586 841
587 841
588 841
589 841
590 841
591 841
592 841
593 841
594 841
595 841
596 841
597 841
598 841
599 841
600 841
601 841
602 841
603 841
604 841
605 841
606 841
607 841
608 841
609 841
610 841
611 841
612 841
613 841
614 841
615 841
616 841
617 841
618 841
619 841
620 841
621 841
622 841
623 841
624 841
625 841
626 841
627 841
628 841
629 841
630 841
631 841
632 841
633 841
634 841
635 841
636 841
637 841
638 841
639 841
640 841
641 841
642 841
643 841
644 841
645 841
646 841
647 841
648 841
649 841
650 841
651 841
652 841
653 841
654 841
655 841
656 841
657 841
658 841
659 841
660 841
661 841
662 841
663 841
664 841
665 841
666 841
667 841
668 841
669 841
670 841
671 841
672 841
673 841
674 841
675 841
676 841
677 841
678 841
679 841
680 841
681 841
682 841
683 841
684 841
685 841
686 841
687 841
688 841
689 841
690 841
691 841
692 841
693 841
694 841
695 841
696 841
697 841
698 841
699 841
700 841
701 841
702 841
703 841
704 841
705 841
706 841
707 841
708 841
709 841
710 841
711 841
712 841
713 841
714 841
715 841
716 841
717 841
718 841
719 841
720 841
721 841
722 841
723 841
724 841
725 841
726 841
727 841
728 841
729 841
730 841
731 841
732 841
733 841
734 841
735 841
736 841
737 841
738 841
739 841
740 841
741 841
742 841
743 841
744 841
745 841
746 841
747 841
748 841
749 841
750 841
751 841
752 841
753 841
754 841
755 841
756 841
757 841
758 841
759 841
760 841
761 841
762 841
763 841
764 841
765 841
766 841
767 841
768 841
769 841
770 841
771 841
772 841
773 841
774 841
775 841
776 841
777 841
778 841
779 841
780 841
781 841
782 841
783 841
784 841
785 841
786 841
787 841
788 841
789 841
790 841
791 841
792 841
793 841
794 841
795 841
796 841
797 841
798 841
799 841
800 841
801 841
802 841
803 841
804 841
805 841
806 841
807 841
808 841
809 841
810 841
811 841
812 841
813 841
814 841
815 841
816 841
817 841
818 841
819 841
820 841
821 841
822 841
823 841
824 841
825 841
826 841
827 841
828 841
829 841
830 841
831 841
832 841
833 841
834 841
835 841
836 841
837 841
838 841
839 841
840 841
841 841
842 841
843 841
844 841
845 841
846 841
847 841
848 841
849 841
850 841
851 841
852 841
853 841
854 841
855 841
856 841
857 841
858 841
859 841
860 841
861 841
862 841
863 841
864 841
865 841
866 841
867 841
868 841
869 841
870 841
871 841
872 841
873 841
874 841
875 841
876 841
877 841
878 841
879 841
880 841
881 841
882 841
883 841
884 841
885 841
886 841
887 841
888 841
889 841
890 841
891 841
892 841
893 841
894 841
895 841
896 841
897 841
898 841
899 841
900 841
901 841
902 841
903 841
904 841
905 841
906 841
907 841
908 841
909 841
910 841
911 841
912 841
913 841
914 841
915 841
916 841
917 841
918 841
919 841
920 841
921 841
922 841
923 841
924 841
925 841
926 841
927 841
928 841
929 841
930 841
931 841
932 841
933 841
934 841
935 841
936 841
937 841
938 841
939 841
940 841
941 841
942 841
943 841
944 841
945 841
946 841
947 841
948 841
949 841
950 841
951 841
952 841
953 841
954 841
955 841
956 841
957 841
958 841
959 841
960 841
961 841
962 841
963 841
964 841
965 841
966 841
967 841
968 841
969 841
970 841
971 841
972 841
973 841
974 841
975 841
976 841
977 841
978 841
979 841
980 841
981 841
982 841
983 841
984 841
985 841
986 841
987 841
988 841
989 841
990 841
991 841
992 841
993 841
994 841
995 841
996 841
997 841
998 841
999 841
Best: [[7,4,3,24,15,25],
       [28,6,11,26,21],
       [27,8,22,32,20,18,14],
       [31,17,2,13],
       [30,16,23,10,19,9,12,5,29]], fitness: 841
